<number of tasks>
50

<cycle time>
1000

<order strength>
0.197


<task times>
1 43
2 174
3 138
4 38
5 75
6 416
7 228
8 122
9 141
10 126
11 117
12 119
13 406
14 42
15 272
16 220
17 36
18 252
19 508
20 551
21 373
22 110
23 204
24 25
25 118
26 256
27 287
28 105
29 169
30 45
31 517
32 105
33 230
34 116
35 295
36 192
37 110
38 247
39 81
40 228
41 222
42 486
43 142
44 275
45 502
46 113
47 108
48 202
49 67
50 263

<precedence relations>
1,7
2,8
3,9
4,25
4,46
5,9
6,10
7,11
8,14
9,12
9,13
9,50
10,15
10,16
10,17
10,18
11,20
12,22
13,24
14,21
15,19
15,23
15,25
16,25
16,26
17,25
17,40
19,27
20,30
21,28
22,30
23,29
24,30
25,31
26,32
26,33
26,34
26,45
27,37
28,38
29,36
30,40
31,35
31,41
32,39
33,50
35,42
36,43
37,44
37,45
37,46
38,44
40,44
42,47
43,48
45,49
46,50

<end>
